\ Model SBuL-010-StripPacking-10
\ LP format - for model browsing. Use MPS format to capture full model detail.
Minimize
  h
Subject To
 Height[B0]: - c[B0,1] + h >= 18
 Height[B1]: - c[B1,1] + h >= 5.5
 Height[B2]: - c[B2,1] + h >= 3.5
 Height[B3]: - c[B3,1] + h >= 3
 Height[B4]: - c[B4,1] + h >= 25
 Height[B5]: - c[B5,1] + h >= 16.5
 Height[B6]: - c[B6,1] + h >= 12
 Height[B7]: - c[B7,1] + h >= 3.5
 Height[B8]: - c[B8,1] + h >= 4.5
 Height[B9]: - c[B9,1] + h >= 16
 PM[B0,B1,0]: - c[B0,0] + c[B1,0] + 100 delta[B0,B1] + 100 delta[B1,B0]
   >= 28
 PM[B0,B1,1]: - c[B0,1] + c[B1,1] - 10000 delta[B0,B1] + 10000 delta[B1,B0]
   >= -9976.5
 PM[B0,B2,0]: - c[B0,0] + c[B2,0] + 100 delta[B0,B2] + 100 delta[B2,B0]
   >= 12.5
 PM[B0,B2,1]: - c[B0,1] + c[B2,1] - 9997 delta[B0,B2] + 9997 delta[B2,B0]
   >= -9975.5
 PM[B0,B3,0]: - c[B0,0] + c[B3,0] + 100 delta[B0,B3] + 100 delta[B3,B0]
   >= 20.5
 PM[B0,B3,1]: - c[B0,1] + c[B3,1] - 10000 delta[B0,B3] + 10000 delta[B3,B0]
   >= -9979
 PM[B0,B4,0]: - c[B0,0] + c[B4,0] + 100 delta[B0,B4] + 100 delta[B4,B0]
   >= 32
 PM[B0,B4,1]: - c[B0,1] + c[B4,1] - 10000 delta[B0,B4] + 10000 delta[B4,B0]
   >= -9972
 PM[B0,B5,0]: - c[B0,0] + c[B5,0] + 100 delta[B0,B5] + 100 delta[B5,B0]
   >= 12
 PM[B0,B5,1]: - c[B0,1] + c[B5,1] - 9995 delta[B0,B5] + 9995 delta[B5,B0]
   >= -9971.5
 PM[B0,B6,0]: - c[B0,0] + c[B6,0] + 100 delta[B0,B6] + 100 delta[B6,B0]
   >= 12
 PM[B0,B6,1]: - c[B0,1] + c[B6,1] - 9989 delta[B0,B6] + 9989 delta[B6,B0]
   >= -9959
 PM[B0,B7,0]: - c[B0,0] + c[B7,0] + 100 delta[B0,B7] + 100 delta[B7,B0]
   >= 11
 PM[B0,B7,1]: - c[B0,1] + c[B7,1] - 10000 delta[B0,B7] + 10000 delta[B7,B0]
   >= -9978.5
 PM[B0,B8,0]: - c[B0,0] + c[B8,0] + 100 delta[B0,B8] + 100 delta[B8,B0]
   >= 14
 PM[B0,B8,1]: - c[B0,1] + c[B8,1] - 9994 delta[B0,B8] + 9994 delta[B8,B0]
   >= -9971.5
 PM[B0,B9,0]: - c[B0,0] + c[B9,0] + 100 delta[B0,B9] + 100 delta[B9,B0]
   >= 9
 PM[B0,B9,1]: - c[B0,1] + c[B9,1] - 9993 delta[B0,B9] + 9993 delta[B9,B0]
   >= -9969
 PM[B1,B0,0]: c[B0,0] - c[B1,0] - 100 delta[B0,B1] - 100 delta[B1,B0]
   >= -187
 PM[B1,B0,1]: c[B0,1] - c[B1,1] + 10000 delta[B0,B1] - 10000 delta[B1,B0]
   >= -9986.5
 PM[B1,B2,0]: - c[B1,0] + c[B2,0] + 100 delta[B1,B2] + 100 delta[B2,B1]
   >= 15.5
 PM[B1,B2,1]: - c[B1,1] + c[B2,1] - 10000 delta[B1,B2] + 10000 delta[B2,B1]
   >= -9988
 PM[B1,B3,0]: - c[B1,0] + c[B3,0] + 100 delta[B1,B3] + 100 delta[B3,B1]
   >= 23.5
 PM[B1,B3,1]: - c[B1,1] + c[B3,1] - 10000 delta[B1,B3] + 10000 delta[B3,B1]
   >= -9991.5
 PM[B1,B4,0]: - c[B1,0] + c[B4,0] + 100 delta[B1,B4] + 100 delta[B4,B1]
   >= 35
 PM[B1,B4,1]: - c[B1,1] + c[B4,1] - 10000 delta[B1,B4] + 10000 delta[B4,B1]
   >= -9984.5
 PM[B1,B5,0]: - c[B1,0] + c[B5,0] + 100 delta[B1,B5] + 100 delta[B5,B1]
   >= 15
 PM[B1,B5,1]: - c[B1,1] + c[B5,1] - 10000 delta[B1,B5] + 10000 delta[B5,B1]
   >= -9984
 PM[B1,B6,0]: - c[B1,0] + c[B6,0] + 100 delta[B1,B6] + 100 delta[B6,B1]
   >= 15
 PM[B1,B6,1]: - c[B1,1] + c[B6,1] - 10000 delta[B1,B6] + 10000 delta[B6,B1]
   >= -9971.5
 PM[B1,B7,0]: - c[B1,0] + c[B7,0] + 100 delta[B1,B7] + 100 delta[B7,B1]
   >= 14
 PM[B1,B7,1]: - c[B1,1] + c[B7,1] - 10000 delta[B1,B7] + 10000 delta[B7,B1]
   >= -9991
 PM[B1,B8,0]: - c[B1,0] + c[B8,0] + 100 delta[B1,B8] + 100 delta[B8,B1]
   >= 17
 PM[B1,B8,1]: - c[B1,1] + c[B8,1] - 10000 delta[B1,B8] + 10000 delta[B8,B1]
   >= -9984
 PM[B1,B9,0]: - c[B1,0] + c[B9,0] + 100 delta[B1,B9] + 100 delta[B9,B1]
   >= 12
 PM[B1,B9,1]: - c[B1,1] + c[B9,1] - 10000 delta[B1,B9] + 10000 delta[B9,B1]
   >= -9981.5
 PM[B2,B0,0]: c[B0,0] - c[B2,0] - 100 delta[B0,B2] - 100 delta[B2,B0]
   >= -191.5
 PM[B2,B0,1]: c[B0,1] - c[B2,1] + 10000 delta[B0,B2] - 10000 delta[B2,B0]
   >= -9988.5
 PM[B2,B1,0]: c[B1,0] - c[B2,0] - 100 delta[B1,B2] - 100 delta[B2,B1]
   >= -173.5
 PM[B2,B1,1]: c[B1,1] - c[B2,1] + 10000 delta[B1,B2] - 10000 delta[B2,B1]
   >= -9991
 PM[B2,B3,0]: - c[B2,0] + c[B3,0] + 100 delta[B2,B3] + 100 delta[B3,B2]
   >= 19
 PM[B2,B3,1]: - c[B2,1] + c[B3,1] - 10000 delta[B2,B3] + 10000 delta[B3,B2]
   >= -9993.5
 PM[B2,B4,0]: - c[B2,0] + c[B4,0] + 100 delta[B2,B4] + 100 delta[B4,B2]
   >= 30.5
 PM[B2,B4,1]: - c[B2,1] + c[B4,1] - 10000 delta[B2,B4] + 10000 delta[B4,B2]
   >= -9986.5
 PM[B2,B5,0]: - c[B2,0] + c[B5,0] + 100 delta[B2,B5] + 100 delta[B5,B2]
   >= 10.5
 PM[B2,B5,1]: - c[B2,1] + c[B5,1] - 10000 delta[B2,B5] + 10000 delta[B5,B2]
   >= -9986
 PM[B2,B6,0]: - c[B2,0] + c[B6,0] + 100 delta[B2,B6] + 100 delta[B6,B2]
   >= 10.5
 PM[B2,B6,1]: - c[B2,1] + c[B6,1] - 10000 delta[B2,B6] + 10000 delta[B6,B2]
   >= -9973.5
 PM[B2,B7,0]: - c[B2,0] + c[B7,0] + 100 delta[B2,B7] + 100 delta[B7,B2]
   >= 9.5
 PM[B2,B7,1]: - c[B2,1] + c[B7,1] - 10000 delta[B2,B7] + 10000 delta[B7,B2]
   >= -9993
 PM[B2,B8,0]: - c[B2,0] + c[B8,0] + 100 delta[B2,B8] + 100 delta[B8,B2]
   >= 12.5
 PM[B2,B8,1]: - c[B2,1] + c[B8,1] - 10000 delta[B2,B8] + 10000 delta[B8,B2]
   >= -9986
 PM[B2,B9,0]: - c[B2,0] + c[B9,0] + 100 delta[B2,B9] + 100 delta[B9,B2]
   >= 7.5
 PM[B2,B9,1]: - c[B2,1] + c[B9,1] - 10000 delta[B2,B9] + 10000 delta[B9,B2]
   >= -9983.5
 PM[B3,B0,0]: c[B0,0] - c[B3,0] - 100 delta[B0,B3] - 100 delta[B3,B0]
   >= -184.5
 PM[B3,B0,1]: c[B0,1] - c[B3,1] + 10000 delta[B0,B3] - 10000 delta[B3,B0]
   >= -9989
 PM[B3,B1,0]: c[B1,0] - c[B3,0] - 95 delta[B1,B3] - 95 delta[B3,B1]
   >= -161.5
 PM[B3,B1,1]: c[B1,1] - c[B3,1] + 10000 delta[B1,B3] - 10000 delta[B3,B1]
   >= -9991.5
 PM[B3,B2,0]: c[B2,0] - c[B3,0] - 96 delta[B2,B3] - 96 delta[B3,B2]
   >= -178
 PM[B3,B2,1]: c[B2,1] - c[B3,1] + 10000 delta[B2,B3] - 10000 delta[B3,B2]
   >= -9990.5
 PM[B3,B4,0]: - c[B3,0] + c[B4,0] + 95 delta[B3,B4] + 95 delta[B4,B3]
   >= 32.5
 PM[B3,B4,1]: - c[B3,1] + c[B4,1] - 10000 delta[B3,B4] + 10000 delta[B4,B3]
   >= -9987
 PM[B3,B5,0]: - c[B3,0] + c[B5,0] + 100 delta[B3,B5] + 100 delta[B5,B3]
   >= 17.5
 PM[B3,B5,1]: - c[B3,1] + c[B5,1] - 10000 delta[B3,B5] + 10000 delta[B5,B3]
   >= -9986.5
 PM[B3,B6,0]: - c[B3,0] + c[B6,0] + 100 delta[B3,B6] + 100 delta[B6,B3]
   >= 17.5
 PM[B3,B6,1]: - c[B3,1] + c[B6,1] - 10000 delta[B3,B6] + 10000 delta[B6,B3]
   >= -9974
 PM[B3,B7,0]: - c[B3,0] + c[B7,0] + 100 delta[B3,B7] + 100 delta[B7,B3]
   >= 16.5
 PM[B3,B7,1]: - c[B3,1] + c[B7,1] - 10000 delta[B3,B7] + 10000 delta[B7,B3]
   >= -9993.5
 PM[B3,B8,0]: - c[B3,0] + c[B8,0] + 100 delta[B3,B8] + 100 delta[B8,B3]
   >= 19.5
 PM[B3,B8,1]: - c[B3,1] + c[B8,1] - 10000 delta[B3,B8] + 10000 delta[B8,B3]
   >= -9986.5
 PM[B3,B9,0]: - c[B3,0] + c[B9,0] + 100 delta[B3,B9] + 100 delta[B9,B3]
   >= 14.5
 PM[B3,B9,1]: - c[B3,1] + c[B9,1] - 10000 delta[B3,B9] + 10000 delta[B9,B3]
   >= -9984
 PM[B4,B0,0]: c[B0,0] - c[B4,0] - 100 delta[B0,B4] - 100 delta[B4,B0]
   >= -186
 PM[B4,B0,1]: c[B0,1] - c[B4,1] + 9998 delta[B0,B4] - 9998 delta[B4,B0]
   >= -9967
 PM[B4,B1,0]: c[B1,0] - c[B4,0] - 100 delta[B1,B4] - 100 delta[B4,B1]
   >= -168
 PM[B4,B1,1]: c[B1,1] - c[B4,1] + 10000 delta[B1,B4] - 10000 delta[B4,B1]
   >= -9969.5
 PM[B4,B2,0]: c[B2,0] - c[B4,0] - 100 delta[B2,B4] - 100 delta[B4,B2]
   >= -183.5
 PM[B4,B2,1]: c[B2,1] - c[B4,1] + 9997 delta[B2,B4] - 9997 delta[B4,B2]
   >= -9968.5
 PM[B4,B3,0]: c[B3,0] - c[B4,0] - 100 delta[B3,B4] - 100 delta[B4,B3]
   >= -175.5
 PM[B4,B3,1]: c[B3,1] - c[B4,1] + 10000 delta[B3,B4] - 10000 delta[B4,B3]
   >= -9972
 PM[B4,B5,0]: - c[B4,0] + c[B5,0] + 100 delta[B4,B5] + 100 delta[B5,B4]
   >= 16
 PM[B4,B5,1]: - c[B4,1] + c[B5,1] - 9995 delta[B4,B5] + 9995 delta[B5,B4]
   >= -9964.5
 PM[B4,B6,0]: - c[B4,0] + c[B6,0] + 100 delta[B4,B6] + 100 delta[B6,B4]
   >= 16
 PM[B4,B6,1]: - c[B4,1] + c[B6,1] - 9989 delta[B4,B6] + 9989 delta[B6,B4]
   >= -9952
 PM[B4,B7,0]: - c[B4,0] + c[B7,0] + 100 delta[B4,B7] + 100 delta[B7,B4]
   >= 15
 PM[B4,B7,1]: - c[B4,1] + c[B7,1] - 10000 delta[B4,B7] + 10000 delta[B7,B4]
   >= -9971.5
 PM[B4,B8,0]: - c[B4,0] + c[B8,0] + 100 delta[B4,B8] + 100 delta[B8,B4]
   >= 18
 PM[B4,B8,1]: - c[B4,1] + c[B8,1] - 9994 delta[B4,B8] + 9994 delta[B8,B4]
   >= -9964.5
 PM[B4,B9,0]: - c[B4,0] + c[B9,0] + 100 delta[B4,B9] + 100 delta[B9,B4]
   >= 13
 PM[B4,B9,1]: - c[B4,1] + c[B9,1] - 9993 delta[B4,B9] + 9993 delta[B9,B4]
   >= -9962
 PM[B5,B0,0]: c[B0,0] - c[B5,0] - 100 delta[B0,B5] - 100 delta[B5,B0]
   >= -188
 PM[B5,B0,1]: c[B0,1] - c[B5,1] + 9998 delta[B0,B5] - 9998 delta[B5,B0]
   >= -9975.5
 PM[B5,B1,0]: c[B1,0] - c[B5,0] - 100 delta[B1,B5] - 100 delta[B5,B1]
   >= -170
 PM[B5,B1,1]: c[B1,1] - c[B5,1] + 10000 delta[B1,B5] - 10000 delta[B5,B1]
   >= -9978
 PM[B5,B2,0]: c[B2,0] - c[B5,0] - 100 delta[B2,B5] - 100 delta[B5,B2]
   >= -185.5
 PM[B5,B2,1]: c[B2,1] - c[B5,1] + 9997 delta[B2,B5] - 9997 delta[B5,B2]
   >= -9977
 PM[B5,B3,0]: c[B3,0] - c[B5,0] - 100 delta[B3,B5] - 100 delta[B5,B3]
   >= -177.5
 PM[B5,B3,1]: c[B3,1] - c[B5,1] + 10000 delta[B3,B5] - 10000 delta[B5,B3]
   >= -9980.5
 PM[B5,B4,0]: c[B4,0] - c[B5,0] - 100 delta[B4,B5] - 100 delta[B5,B4]
   >= -166
 PM[B5,B4,1]: c[B4,1] - c[B5,1] + 10000 delta[B4,B5] - 10000 delta[B5,B4]
   >= -9973.5
 PM[B5,B6,0]: - c[B5,0] + c[B6,0] + 100 delta[B5,B6] + 100 delta[B6,B5]
   >= 14
 PM[B5,B6,1]: - c[B5,1] + c[B6,1] - 9989 delta[B5,B6] + 9989 delta[B6,B5]
   >= -9960.5
 PM[B5,B7,0]: - c[B5,0] + c[B7,0] + 100 delta[B5,B7] + 100 delta[B7,B5]
   >= 13
 PM[B5,B7,1]: - c[B5,1] + c[B7,1] - 10000 delta[B5,B7] + 10000 delta[B7,B5]
   >= -9980
 PM[B5,B8,0]: - c[B5,0] + c[B8,0] + 100 delta[B5,B8] + 100 delta[B8,B5]
   >= 16
 PM[B5,B8,1]: - c[B5,1] + c[B8,1] - 9994 delta[B5,B8] + 9994 delta[B8,B5]
   >= -9973
 PM[B5,B9,0]: - c[B5,0] + c[B9,0] + 100 delta[B5,B9] + 100 delta[B9,B5]
   >= 11
 PM[B5,B9,1]: - c[B5,1] + c[B9,1] - 9993 delta[B5,B9] + 9993 delta[B9,B5]
   >= -9970.5
 PM[B6,B0,0]: c[B0,0] - c[B6,0] - 100 delta[B0,B6] - 100 delta[B6,B0]
   >= -188
 PM[B6,B0,1]: c[B0,1] - c[B6,1] + 10000 delta[B0,B6] - 10000 delta[B6,B0]
   >= -9980
 PM[B6,B1,0]: c[B1,0] - c[B6,0] - 100 delta[B1,B6] - 100 delta[B6,B1]
   >= -170
 PM[B6,B1,1]: c[B1,1] - c[B6,1] + 10000 delta[B1,B6] - 10000 delta[B6,B1]
   >= -9982.5
 PM[B6,B2,0]: c[B2,0] - c[B6,0] - 100 delta[B2,B6] - 100 delta[B6,B2]
   >= -185.5
 PM[B6,B2,1]: c[B2,1] - c[B6,1] + 10000 delta[B2,B6] - 10000 delta[B6,B2]
   >= -9981.5
 PM[B6,B3,0]: c[B3,0] - c[B6,0] - 100 delta[B3,B6] - 100 delta[B6,B3]
   >= -177.5
 PM[B6,B3,1]: c[B3,1] - c[B6,1] + 10000 delta[B3,B6] - 10000 delta[B6,B3]
   >= -9985
 PM[B6,B4,0]: c[B4,0] - c[B6,0] - 100 delta[B4,B6] - 100 delta[B6,B4]
   >= -166
 PM[B6,B4,1]: c[B4,1] - c[B6,1] + 10000 delta[B4,B6] - 10000 delta[B6,B4]
   >= -9978
 PM[B6,B5,0]: c[B5,0] - c[B6,0] - 100 delta[B5,B6] - 100 delta[B6,B5]
   >= -186
 PM[B6,B5,1]: c[B5,1] - c[B6,1] + 10000 delta[B5,B6] - 10000 delta[B6,B5]
   >= -9977.5
 PM[B6,B7,0]: - c[B6,0] + c[B7,0] + 100 delta[B6,B7] + 100 delta[B7,B6]
   >= 13
 PM[B6,B7,1]: - c[B6,1] + c[B7,1] - 10000 delta[B6,B7] + 10000 delta[B7,B6]
   >= -9984.5
 PM[B6,B8,0]: - c[B6,0] + c[B8,0] + 100 delta[B6,B8] + 100 delta[B8,B6]
   >= 16
 PM[B6,B8,1]: - c[B6,1] + c[B8,1] - 10000 delta[B6,B8] + 10000 delta[B8,B6]
   >= -9977.5
 PM[B6,B9,0]: - c[B6,0] + c[B9,0] + 100 delta[B6,B9] + 100 delta[B9,B6]
   >= 11
 PM[B6,B9,1]: - c[B6,1] + c[B9,1] - 10000 delta[B6,B9] + 10000 delta[B9,B6]
   >= -9975
 PM[B7,B0,0]: c[B0,0] - c[B7,0] - 100 delta[B0,B7] - 100 delta[B7,B0]
   >= -189
 PM[B7,B0,1]: c[B0,1] - c[B7,1] + 10000 delta[B0,B7] - 10000 delta[B7,B0]
   >= -9988.5
 PM[B7,B1,0]: c[B1,0] - c[B7,0] - 100 delta[B1,B7] - 100 delta[B7,B1]
   >= -171
 PM[B7,B1,1]: c[B1,1] - c[B7,1] + 10000 delta[B1,B7] - 10000 delta[B7,B1]
   >= -9991
 PM[B7,B2,0]: c[B2,0] - c[B7,0] - 100 delta[B2,B7] - 100 delta[B7,B2]
   >= -186.5
 PM[B7,B2,1]: c[B2,1] - c[B7,1] + 10000 delta[B2,B7] - 10000 delta[B7,B2]
   >= -9990
 PM[B7,B3,0]: c[B3,0] - c[B7,0] - 100 delta[B3,B7] - 100 delta[B7,B3]
   >= -178.5
 PM[B7,B3,1]: c[B3,1] - c[B7,1] + 10000 delta[B3,B7] - 10000 delta[B7,B3]
   >= -9993.5
 PM[B7,B4,0]: c[B4,0] - c[B7,0] - 100 delta[B4,B7] - 100 delta[B7,B4]
   >= -167
 PM[B7,B4,1]: c[B4,1] - c[B7,1] + 10000 delta[B4,B7] - 10000 delta[B7,B4]
   >= -9986.5
 PM[B7,B5,0]: c[B5,0] - c[B7,0] - 100 delta[B5,B7] - 100 delta[B7,B5]
   >= -187
 PM[B7,B5,1]: c[B5,1] - c[B7,1] + 10000 delta[B5,B7] - 10000 delta[B7,B5]
   >= -9986
 PM[B7,B6,0]: c[B6,0] - c[B7,0] - 100 delta[B6,B7] - 100 delta[B7,B6]
   >= -187
 PM[B7,B6,1]: c[B6,1] - c[B7,1] + 10000 delta[B6,B7] - 10000 delta[B7,B6]
   >= -9973.5
 PM[B7,B8,0]: - c[B7,0] + c[B8,0] + 100 delta[B7,B8] + 100 delta[B8,B7]
   >= 15
 PM[B7,B8,1]: - c[B7,1] + c[B8,1] - 10000 delta[B7,B8] + 10000 delta[B8,B7]
   >= -9986
 PM[B7,B9,0]: - c[B7,0] + c[B9,0] + 100 delta[B7,B9] + 100 delta[B9,B7]
   >= 10
 PM[B7,B9,1]: - c[B7,1] + c[B9,1] - 10000 delta[B7,B9] + 10000 delta[B9,B7]
   >= -9983.5
 PM[B8,B0,0]: c[B0,0] - c[B8,0] - 100 delta[B0,B8] - 100 delta[B8,B0]
   >= -186
 PM[B8,B0,1]: c[B0,1] - c[B8,1] + 10000 delta[B0,B8] - 10000 delta[B8,B0]
   >= -9987.5
 PM[B8,B1,0]: c[B1,0] - c[B8,0] - 100 delta[B1,B8] - 100 delta[B8,B1]
   >= -168
 PM[B8,B1,1]: c[B1,1] - c[B8,1] + 10000 delta[B1,B8] - 10000 delta[B8,B1]
   >= -9990
 PM[B8,B2,0]: c[B2,0] - c[B8,0] - 100 delta[B2,B8] - 100 delta[B8,B2]
   >= -183.5
 PM[B8,B2,1]: c[B2,1] - c[B8,1] + 10000 delta[B2,B8] - 10000 delta[B8,B2]
   >= -9989
 PM[B8,B3,0]: c[B3,0] - c[B8,0] - 100 delta[B3,B8] - 100 delta[B8,B3]
   >= -175.5
 PM[B8,B3,1]: c[B3,1] - c[B8,1] + 10000 delta[B3,B8] - 10000 delta[B8,B3]
   >= -9992.5
 PM[B8,B4,0]: c[B4,0] - c[B8,0] - 100 delta[B4,B8] - 100 delta[B8,B4]
   >= -164
 PM[B8,B4,1]: c[B4,1] - c[B8,1] + 10000 delta[B4,B8] - 10000 delta[B8,B4]
   >= -9985.5
 PM[B8,B5,0]: c[B5,0] - c[B8,0] - 100 delta[B5,B8] - 100 delta[B8,B5]
   >= -184
 PM[B8,B5,1]: c[B5,1] - c[B8,1] + 10000 delta[B5,B8] - 10000 delta[B8,B5]
   >= -9985
 PM[B8,B6,0]: c[B6,0] - c[B8,0] - 100 delta[B6,B8] - 100 delta[B8,B6]
   >= -184
 PM[B8,B6,1]: c[B6,1] - c[B8,1] + 10000 delta[B6,B8] - 10000 delta[B8,B6]
   >= -9972.5
 PM[B8,B7,0]: c[B7,0] - c[B8,0] - 100 delta[B7,B8] - 100 delta[B8,B7]
   >= -185
 PM[B8,B7,1]: c[B7,1] - c[B8,1] + 10000 delta[B7,B8] - 10000 delta[B8,B7]
   >= -9992
 PM[B8,B9,0]: - c[B8,0] + c[B9,0] + 100 delta[B8,B9] + 100 delta[B9,B8]
   >= 13
 PM[B8,B9,1]: - c[B8,1] + c[B9,1] - 10000 delta[B8,B9] + 10000 delta[B9,B8]
   >= -9982.5
 PM[B9,B0,0]: c[B0,0] - c[B9,0] - 100 delta[B0,B9] - 100 delta[B9,B0]
   >= -183
 PM[B9,B0,1]: c[B0,1] - c[B9,1] + 9998 delta[B0,B9] - 9998 delta[B9,B0]
   >= -9976
 PM[B9,B1,0]: c[B1,0] - c[B9,0] - 92 delta[B1,B9] - 92 delta[B9,B1]
   >= -157
 PM[B9,B1,1]: c[B1,1] - c[B9,1] + 10000 delta[B1,B9] - 10000 delta[B9,B1]
   >= -9978.5
 PM[B9,B2,0]: c[B2,0] - c[B9,0] - 96 delta[B2,B9] - 96 delta[B9,B2]
   >= -176.5
 PM[B9,B2,1]: c[B2,1] - c[B9,1] + 9997 delta[B2,B9] - 9997 delta[B9,B2]
   >= -9977.5
 PM[B9,B3,0]: c[B3,0] - c[B9,0] - 92 delta[B3,B9] - 92 delta[B9,B3]
   >= -164.5
 PM[B9,B3,1]: c[B3,1] - c[B9,1] + 10000 delta[B3,B9] - 10000 delta[B9,B3]
   >= -9981
 PM[B9,B4,0]: c[B4,0] - c[B9,0] - 92 delta[B4,B9] - 92 delta[B9,B4]
   >= -153
 PM[B9,B4,1]: c[B4,1] - c[B9,1] + 10000 delta[B4,B9] - 10000 delta[B9,B4]
   >= -9974
 PM[B9,B5,0]: c[B5,0] - c[B9,0] - 100 delta[B5,B9] - 100 delta[B9,B5]
   >= -181
 PM[B9,B5,1]: c[B5,1] - c[B9,1] + 9995 delta[B5,B9] - 9995 delta[B9,B5]
   >= -9973.5
 PM[B9,B6,0]: c[B6,0] - c[B9,0] - 100 delta[B6,B9] - 100 delta[B9,B6]
   >= -181
 PM[B9,B6,1]: c[B6,1] - c[B9,1] + 9990 delta[B6,B9] - 9990 delta[B9,B6]
   >= -9961
 PM[B9,B7,0]: c[B7,0] - c[B9,0] - 100 delta[B7,B9] - 100 delta[B9,B7]
   >= -182
 PM[B9,B7,1]: c[B7,1] - c[B9,1] + 10000 delta[B7,B9] - 10000 delta[B9,B7]
   >= -9980.5
 PM[B9,B8,0]: c[B8,0] - c[B9,0] - 100 delta[B8,B9] - 100 delta[B9,B8]
   >= -179
 PM[B9,B8,1]: c[B8,1] - c[B9,1] + 9994 delta[B8,B9] - 9994 delta[B9,B8]
   >= -9973.5
Bounds
 5 <= c[B0,0] <= 95
 8 <= c[B0,1] <= 9982
 23 <= c[B1,0] <= 92
 5.5 <= c[B1,1] <= 9994.5
 7.5 <= c[B2,0] <= 96.5
 6.5 <= c[B2,1] <= 9996.5
 15.5 <= c[B3,0] <= 89.5
 3 <= c[B3,1] <= 9997
 27 <= c[B4,0] <= 91
 10 <= c[B4,1] <= 9975
 7 <= c[B5,0] <= 93
 10.5 <= c[B5,1] <= 9983.5
 7 <= c[B6,0] <= 93
 23 <= c[B6,1] <= 9988
 6 <= c[B7,0] <= 94
 3.5 <= c[B7,1] <= 9996.5
 9 <= c[B8,0] <= 91
 10.5 <= c[B8,1] <= 9995.5
 4 <= c[B9,0] <= 88
 13 <= c[B9,1] <= 9984
 25 <= h <= 201
Binaries
 delta[B0,B1] delta[B0,B2] delta[B0,B3] delta[B0,B4] delta[B0,B5]
 delta[B0,B6] delta[B0,B7] delta[B0,B8] delta[B0,B9] delta[B1,B0]
 delta[B1,B2] delta[B1,B3] delta[B1,B4] delta[B1,B5] delta[B1,B6]
 delta[B1,B7] delta[B1,B8] delta[B1,B9] delta[B2,B0] delta[B2,B1]
 delta[B2,B3] delta[B2,B4] delta[B2,B5] delta[B2,B6] delta[B2,B7]
 delta[B2,B8] delta[B2,B9] delta[B3,B0] delta[B3,B1] delta[B3,B2]
 delta[B3,B4] delta[B3,B5] delta[B3,B6] delta[B3,B7] delta[B3,B8]
 delta[B3,B9] delta[B4,B0] delta[B4,B1] delta[B4,B2] delta[B4,B3]
 delta[B4,B5] delta[B4,B6] delta[B4,B7] delta[B4,B8] delta[B4,B9]
 delta[B5,B0] delta[B5,B1] delta[B5,B2] delta[B5,B3] delta[B5,B4]
 delta[B5,B6] delta[B5,B7] delta[B5,B8] delta[B5,B9] delta[B6,B0]
 delta[B6,B1] delta[B6,B2] delta[B6,B3] delta[B6,B4] delta[B6,B5]
 delta[B6,B7] delta[B6,B8] delta[B6,B9] delta[B7,B0] delta[B7,B1]
 delta[B7,B2] delta[B7,B3] delta[B7,B4] delta[B7,B5] delta[B7,B6]
 delta[B7,B8] delta[B7,B9] delta[B8,B0] delta[B8,B1] delta[B8,B2]
 delta[B8,B3] delta[B8,B4] delta[B8,B5] delta[B8,B6] delta[B8,B7]
 delta[B8,B9] delta[B9,B0] delta[B9,B1] delta[B9,B2] delta[B9,B3]
 delta[B9,B4] delta[B9,B5] delta[B9,B6] delta[B9,B7] delta[B9,B8]
End
